Traveling Salesman Problem/TSP_generados/Aleatorio1621103291_8.tsp
NAME: Aleatorio1621103291_8.tsp
COMMENT: Randomly generated scenario
TYPE: TSP
DIMENSION: 8
EDGE_WEIGHT_TYPE: ATT
NODE_COORD_SECTION
1 8.32 1.85
2 38.36 13.09
3 17.15 14.8
4 38.7 21.5
5 1.89 37.5
6 19.39 21.6
7 1.24 49.99
8 21.86 47.38
