Traveling Salesman Problem/TSP_generados/Aleatorio1621103291_8.opt.tour
NAME: Aleatorio1621103291_8.opt.tour
COMMENT: Optimal solution for Aleatorio1621103291_8 (151.13658961476952)
TYPE: TOUR
DIMENSION: 8
TOUR_SECTION
1 3 6 5 7 8 4 2
-1
EOF
